\ LP format - for model browsing. Use MPS format to capture full model detail.
Maximize
  9 x_1 + 5 x_2 + 3 x_3 + x_4 + 6 x_5 + 9 x_6 + 7 x_7 + 7 x_8 + 7 x_9 + x_10
   + 10 x_11 + 8 x_12 + 4 x_13 + 4 x_14 + 10 x_15 + 10 x_16 + 3 x_17
   + 2 x_18 + 8 x_19 + 3 x_20 + 10 x_21 + 4 x_22 + x_23 + 8 x_24 + 2 x_25
Subject To
 C_1: 6 x_1 + 10 x_3 + 6 x_4 + 6 x_6 + 3 x_7 + 9 x_9 + 7 x_10 + x_14
   + 10 x_15 + 9 x_16 + 9 x_19 + x_20 + 6 x_24 + 10 x_25 <= 46
 C_2: 10 x_1 + x_2 + 10 x_4 + 9 x_6 + 7 x_7 + 7 x_10 + 10 x_12 + x_13
   + x_14 + 6 x_15 + 8 x_16 + 4 x_17 + 7 x_23 + 4 x_24 <= 42
 C_3: 4 x_1 + x_3 + 5 x_4 + 9 x_7 + 7 x_9 + 8 x_10 + 3 x_11 + 7 x_12
   + 10 x_14 + 5 x_21 + 3 x_25 <= 31
 C_4: x_1 + 6 x_8 + 3 x_9 + 7 x_12 + 7 x_16 + 8 x_17 + 4 x_19 + 7 x_21
   + 3 x_23 <= 23
 C_5: x_1 + 8 x_2 + 5 x_3 + 7 x_4 + 4 x_5 + 2 x_7 + 3 x_8 + 9 x_10 + 9 x_13
   + 8 x_14 + 4 x_15 + 7 x_16 + 2 x_21 + 9 x_22 + 7 x_23 + 9 x_24 <= 47
 C_6: 10 x_1 + 2 x_3 + 2 x_4 + 2 x_7 + 6 x_10 + x_11 + 7 x_14 + x_16
   + 9 x_18 + 5 x_19 + 10 x_20 + 8 x_21 + 6 x_22 + 7 x_23 + 9 x_24 + 5 x_25
   <= 45
 C_7: 10 x_4 + 3 x_6 + 2 x_8 + 9 x_9 + 2 x_12 + 6 x_20 + 9 x_21 + 6 x_23
   <= 23
 C_8: 2 x_1 + 5 x_2 + 7 x_6 + 10 x_8 + 6 x_9 + 3 x_10 + 10 x_11 + 9 x_14
   + 3 x_15 + 5 x_16 + 10 x_18 + 9 x_19 + 2 x_20 + 7 x_21 <= 44
 C_9: 4 x_2 + 3 x_3 + 5 x_4 + 3 x_5 + 2 x_6 + 3 x_7 + 3 x_8 + 3 x_9
   + 7 x_10 + 5 x_12 + 9 x_14 + 8 x_16 + x_19 + 10 x_24 + 3 x_25 <= 34
 C_10: 9 x_3 + 5 x_5 + 10 x_6 + 4 x_7 + 6 x_10 + x_14 + x_15 + x_19
   + 3 x_22 + 3 x_24 <= 21
Bounds
Binaries
 x_1 x_2 x_3 x_4 x_5 x_6 x_7 x_8 x_9 x_10 x_11 x_12 x_13 x_14 x_15 x_16
 x_17 x_18 x_19 x_20 x_21 x_22 x_23 x_24 x_25
End
